400
100 100
1 80 540
2 80 107
3 80 518
4 80 541
5 80 621
6 79 229
7 79 550
8 79 823
9 79 698
10 79 154
11 78 18
12 78 781
13 78 187
14 78 807
15 77 822
16 77 75
17 77 76
18 77 91
19 77 442
20 77 155
21 77 616
22 77 807
23 77 138
24 77 561
25 76 308
26 76 804
27 76 843
28 76 642
29 76 741
30 76 505
31 75 561
32 75 220
33 75 548
34 75 767
35 74 86
36 74 931
37 74 993
38 74 195
39 74 793
40 73 405
41 73 48
42 73 346
43 73 21
44 73 873
45 73 409
46 73 769
47 73 194
48 73 569
49 73 808
50 72 897
51 72 397
52 72 306
53 72 878
54 72 81
55 72 63
56 72 198
57 72 182
58 72 243
59 71 314
60 71 909
61 71 201
62 71 439
63 71 771
64 71 95
65 71 745
66 71 779
67 71 569
68 71 779
69 71 692
70 70 301
71 70 471
72 70 343
73 70 353
74 70 32
75 70 868
76 70 652
77 70 842
78 70 43
79 70 261
80 69 846
81 69 522
82 69 31
83 69 989
84 68 430
85 68 421
86 68 708
87 68 101
88 68 272
89 68 384
90 67 783
91 67 657
92 67 629
93 67 893
94 67 655
95 67 753
96 67 806
97 66 87
98 66 431
99 66 865
100 66 844
101 66 589
102 66 928
103 66 411
104 66 508
105 66 372
106 66 705
107 66 303
108 66 816
109 65 971
110 65 865
111 65 209
112 65 572
113 65 769
114 65 686
115 65 105
116 65 362
117 65 445
118 64 918
119 64 221
120 64 921
121 63 794
122 63 65
123 63 797
124 63 666
125 62 817
126 62 648
127 62 710
128 62 350
129 62 836
130 62 958
131 61 242
132 61 225
133 61 996
134 61 446
135 61 880
136 61 177
137 61 304
138 61 214
139 61 547
140 61 551
141 60 387
142 60 275
143 60 658
144 60 518
145 60 520
146 60 112
147 60 423
148 60 283
149 60 531
150 60 179
151 60 64
152 60 368
153 59 88
154 59 527
155 59 863
156 59 834
157 59 33
158 59 979
159 58 674
160 58 46
161 58 190
162 58 285
163 57 753
164 57 598
165 57 60
166 56 263
167 56 911
168 56 995
169 56 589
170 56 386
171 56 813
172 56 325
173 55 299
174 55 454
175 55 133
176 55 958
177 54 183
178 54 737
179 54 123
180 54 982
181 54 8
182 54 80
183 54 327
184 54 993
185 54 128
186 54 774
187 53 845
188 53 995
189 53 304
190 53 392
191 53 456
192 53 546
193 53 677
194 52 779
195 52 917
196 52 19
197 52 554
198 52 710
199 52 308
200 52 192
201 51 652
202 51 705
203 51 679
204 51 433
205 50 736
206 50 975
207 50 370
208 50 807
209 49 568
210 49 720
211 48 161
212 48 750
213 48 27
214 48 334
215 48 384
216 48 352
217 48 328
218 48 488
219 47 651
220 47 757
221 47 542
222 47 563
223 47 318
224 47 255
225 46 444
226 46 78
227 46 827
228 46 685
229 46 395
230 46 381
231 45 290
232 45 47
233 45 48
234 45 58
235 45 957
236 45 317
237 45 489
238 45 173
239 45 316
240 45 848
241 44 696
242 44 449
243 44 414
244 44 687
245 44 128
246 43 494
247 43 695
248 43 127
249 43 932
250 43 377
251 42 788
252 42 384
253 42 144
254 42 996
255 42 7
256 42 606
257 41 994
258 41 457
259 41 622
260 41 533
261 41 730
262 41 990
263 41 872
264 41 838
265 41 991
266 41 214
267 40 12
268 40 245
269 40 845
270 40 79
271 40 264
272 40 747
273 40 883
274 40 502
275 40 216
276 40 509
277 40 416
278 39 448
279 39 336
280 39 707
281 39 573
282 39 580
283 38 349
284 38 253
285 38 126
286 38 739
287 38 42
288 38 914
289 38 375
290 38 761
291 38 128
292 38 542
293 38 791
294 37 932
295 37 179
296 37 837
297 36 823
298 36 106
299 36 654
300 36 670
301 35 174
302 35 352
303 35 299
304 34 147
305 34 481
306 34 279
307 34 142
308 34 586
309 33 945
310 33 220
311 33 294
312 33 805
313 33 25
314 33 152
315 33 467
316 33 507
317 33 183
318 32 844
319 32 459
320 32 980
321 32 121
322 32 24
323 32 226
324 32 228
325 32 766
326 32 220
327 32 893
328 31 472
329 31 993
330 31 28
331 31 238
332 31 183
333 31 878
334 31 803
335 31 992
336 31 935
337 31 643
338 30 323
339 30 974
340 30 662
341 30 392
342 30 786
343 29 591
344 29 608
345 29 156
346 28 225
347 28 11
348 28 901
349 28 216
350 28 901
351 28 283
352 28 930
353 28 28
354 27 352
355 27 560
356 27 389
357 27 389
358 27 443
359 26 97
360 26 115
361 26 26
362 25 229
363 25 999
364 25 584
365 25 949
366 25 214
367 25 813
368 24 778
369 24 760
370 24 314
371 24 312
372 24 91
373 24 456
374 24 895
375 24 748
376 24 964
377 24 8
378 24 28
379 23 645
380 23 226
381 23 481
382 23 294
383 22 505
384 22 654
385 22 173
386 22 984
387 22 273
388 22 881
389 21 552
390 21 158
391 21 642
392 21 471
393 21 533
394 21 240
395 20 761
396 20 529
397 20 470
398 20 852
399 20 707
400 20 941
